p cnf 7230 16
-865 1227 0
488 881 -1234 0
-488 -1235 0
1234 1235 0
1232 1233 0
871 -1233 0
-871 -1232 0
1230 1231 0
869 -1231 0
-869 -1230 0
1228 1229 0
867 -1229 0
-867 -1228 0
-881 -1235 0
-1226 -1227 0
1226 1227 0
